GLPSOL--GLPK LP/MIP Solver 5.0
Parameter(s) specified in the command line:
 --lp ../modeles/5_164.lp --log 5_164.log
Reading problem data from '../modeles/5_164.lp'...
841 rows, 1650 columns, 5755 non-zeros
820 integer variables, all of which are binary
2502 lines were read
GLPK Integer Optimizer 5.0
841 rows, 1650 columns, 5755 non-zeros
820 integer variables, all of which are binary
Preprocessing...
810 constraint coefficient(s) were reduced
841 rows, 1645 columns, 5750 non-zeros
820 integer variables, all of which are binary
Scaling...
 A: min|aij| =  5.949e-04  max|aij| =  4.000e+00  ratio =  6.724e+03
GM: min|aij| =  1.104e-01  max|aij| =  9.055e+00  ratio =  8.200e+01
EQ: min|aij| =  1.220e-02  max|aij| =  1.000e+00  ratio =  8.200e+01
2N: min|aij| =  9.518e-03  max|aij| =  1.749e+00  ratio =  1.838e+02
Constructing initial basis...
Size of triangular part is 841
Solving LP relaxation...
GLPK Simplex Optimizer 5.0
841 rows, 1645 columns, 5750 non-zeros
      0: obj =   1.000000000e+01 inf =   2.450e+01 (11)
     64: obj =   3.226214387e-01 inf =   0.000e+00 (0)
*   231: obj =  -2.235332894e+00 inf =   5.509e-15 (0)
OPTIMAL LP SOLUTION FOUND
Integer optimization begins...
Long-step dual simplex will be used
+   231: mip =     not found yet >=              -inf        (1; 0)
+   415: >>>>>  -2.235332894e+00 >=  -2.235332894e+00   0.0% (183; 0)
+   415: mip =  -2.235332894e+00 >=     tree is empty   0.0% (0; 365)
INTEGER OPTIMAL SOLUTION FOUND
Time used:   0.2 secs
Memory used: 2.5 Mb (2585215 bytes)
